Problem:    g
Rows:       12
Columns:    5
Non-zeros:  18
Status:     OPTIMAL
Objective:  z = 3.666666667 (MINimum)

   No.   Row name   St   Activity     Lower bound   Upper bound    Marginal
------ ------------ -- ------------- ------------- ------------- -------------
     1 z            B        3.66667                             
     2 con1         B              3             1               
     3 con2         NU             3                           3     -0.333333 
     4 con3         B        6.66667             4               
     5 con4         B        6.66667                           7 
     6 con5         B        10.3333             8               
     7 con6         B        10.3333                          12 
     8 con7         NL            14            14                    0.333333 
     9 con8         B             14                          18 
    10 con9         NU             0                          -0     -0.333333 
    11 con10        NU             0                          -0     -0.333333 
    12 con11        NU             0                          -0     -0.333333 

   No. Column name  St   Activity     Lower bound   Upper bound    Marginal
------ ------------ -- ------------- ------------- ------------- -------------
     1 g1           B              3             0               
     2 g2           B        6.66667             0               
     3 g3           B        10.3333             0               
     4 g4           B             14             0               
     5 d            B        3.66667             0               

Karush-Kuhn-Tucker optimality conditions:

KKT.PE: max.abs.err = 0.00e+00 on row 0
        max.rel.err = 0.00e+00 on row 0
        High quality

KKT.PB: max.abs.err = 0.00e+00 on row 0
        max.rel.err = 0.00e+00 on row 0
        High quality

KKT.DE: max.abs.err = 5.55e-17 on column 3
        max.rel.err = 3.33e-17 on column 3
        High quality

KKT.DB: max.abs.err = 0.00e+00 on row 0
        max.rel.err = 0.00e+00 on row 0
        High quality

End of output
